File : Instances/p61
Used 66s
26981

0 0 1 0 0 0 0 1 1 0 0 1 0 1 0 0 1 0 0 1 1 0 0 0 0 0 1 1 1 0 
7 19 2 27 2 11 16 27 27 28 26 28 13 13 28 7 13 20 27 27 7 16 13 27 20 27 27 19 26 2 19 19 26 16 27 19 20 8 16 16 7 8 19 26 8 19 13 16 19 20 27 16 16 16 8 19 11 8 7 7 26 28 7 8 13 11 2 19 28 11 7 11 19 8 20 13 20 20 8 16 20 2 26 7 26 13 19 2 27 7 28 19 7 11 2 13 11 19 28 28 28 16 11 7 26 2 26 16 27 13 19 26 27 19 11 8 28 7 28 8 26 11 28 19 26 16 2 11 26 28 28 16 11 20 13 8 13 13 28 20 11 27 11 11 7 2 16 16 27 7 27 28 13 28 8 11 2 16 13 13 13 27 20 2 2 27 2 26 13 2 13 20 19 20 26 2 27 20 26 20 2 16 2 19 11 8 28 13 28 16 2 2 19 26 7 11 7 2 20 19 
